0 18 33
1 31 36
2 36 38
3 33 36
4 31 36
5 31 36
6 33 35
7 31 33
8 17 32
9 27 36
10 28 32
11 8 32
12 20 31
13 28 31
14 28 29
15 29 29
16 14 30
17 19 29
18 24 28
19 24 26
20 23 24
21 24 24
22 20 22
23 20 20
24 17 20
25 16 18
26 14 17
27 9 15
28 13 15
29 15 16
30 13 15
31 9 15
32 7 12
33 12 14
34 13 14
35 11 12
36 11 11
37 9 10
38 8 8
39 1 8
40 3 6
41 6 6
42 4 4
43 3 3
44 2 3
45 1 2
46 1 1

